(set-info :smt-lib-version 2.6)
(set-logic UFNRA)
(set-info :source |
Generated by: Geoff Sutcliffe
Generated on: 2026-03-11
Generator: TPTPWorld
Application: Benchmarking automated theorem provers
Time limit: 120.0

These benchmarks are translations from the TPTP Library (Thousands of
Problems for Theorem Provers), see http://www.cs.miami.edu/~tptp/

The TPTP is maintained by Geoff Sutcliffe, and he contributed this
selection of benchmarks to SMT-LIB.  They were exported from the
v9.2.1 realease of TPTP.
|)
(set-info :category "industrial")
(set-info :status "unknown")
; SZS status Success
(declare-sort $$unsorted 0)
(declare-fun tptp.f (Real) Real)
(assert (not (not (forall ((X Real) (Y Real)) (=> (> Y 0.0) (< (tptp.f X) (+ (+ (* (/ 1 2) (tptp.f (+ X (- Y)))) (* (/ 1 2) (tptp.f (+ X Y)))) (- 1.0))))))))
(check-sat)
(exit)
